c User generated cnf file
p cnf 7 30
-4 4 4 0 
3 -5 2 0 
7 7 -2 0 
6 4 -1 0 
4 6 -7 0 
-4 7 6 0 
-7 4 6 0 
-5 4 2 0 
2 2 -7 0 
-4 3 3 0 
-2 6 4 0 
3 -4 1 0 
-7 2 3 0 
2 6 -3 0 
2 4 -2 0 
7 2 -3 0 
4 2 -5 0 
7 2 -7 0 
7 -5 6 0 
1 -7 3 0 
4 -6 5 0 
-3 5 4 0 
5 -7 1 0 
7 5 -1 0 
-5 3 2 0 
-1 2 7 0 
4 -4 1 0 
2 -6 3 0 
2 -7 7 0 
1 3 -2 0 
